<number of tasks>
30

<cycle time>
25

<task times>
1 8
2 7
3 19
4 10
5 2
6 6
7 14
8 10
9 1
10 4
11 14
12 15
13 5
14 12
15 9
16 10
17 2
18 10
19 18
20 16
21 21
22 14
23 16
24 7
25 17
26 9
27 25
28 7
29 14
30 2

<precedence relations>
1,4
1,5
2,11
2,12
3,16
3,17
4,7
5,6
6,7
7,8
8,9
9,26
10,24
12,13
13,14
14,15
14,20
15,22
16,20
17,18
18,19
20,21
20,24
21,22
22,23
23,27
24,25
25,26
26,27
27,28
27,29
29,30

<setup times forward>
1,3:1
1,13:1
1,15:1
1,20:1
1,23:1
1,24:1
1,25:1
2,3:1
3,1:1
3,2:1
3,4:1
3,5:1
3,6:1
3,7:1
3,8:1
3,9:1
3,10:1
3,11:1
3,12:1
3,14:1
3,16:1
3,17:1
4,3:1
4,13:1
4,15:1
4,20:1
4,23:1
4,24:1
4,25:1
5,3:1
5,13:1
5,15:1
5,20:1
5,23:1
5,24:1
5,25:1
6,3:1
6,13:1
6,15:1
6,20:1
6,23:1
6,24:1
6,25:1
7,3:1
7,13:1
7,15:1
7,20:1
7,23:1
7,24:1
7,25:1
8,3:1
8,13:1
8,15:1
8,20:1
8,23:1
8,24:1
8,25:1
9,3:1
9,13:1
9,15:1
9,20:1
9,23:1
9,24:1
9,25:1
9,26:1
10,3:1
10,13:1
10,15:1
10,20:1
10,23:1
10,24:1
11,3:1
11,13:1
11,15:1
11,20:1
11,23:1
11,24:1
11,25:1
11,26:1
11,27:1
12,3:1
12,13:1
13,1:1
13,4:1
13,5:1
13,6:1
13,7:1
13,8:1
13,9:1
13,10:1
13,11:1
13,14:1
13,16:1
13,17:1
13,18:1
13,19:1
14,3:1
14,15:1
14,20:1
15,1:1
15,4:1
15,5:1
15,6:1
15,7:1
15,8:1
15,9:1
15,10:1
15,11:1
15,16:1
15,17:1
15,18:1
15,19:1
15,21:1
15,22:1
16,13:1
16,15:1
16,20:1
17,13:1
17,15:1
17,20:1
17,23:1
17,24:1
17,25:1
17,26:1
17,27:1
18,13:1
18,15:1
18,20:1
18,23:1
18,24:1
18,25:1
18,26:1
18,27:1
19,13:1
19,15:1
19,20:1
19,23:1
19,24:1
19,25:1
19,26:1
19,27:1
20,1:1
20,4:1
20,5:1
20,6:1
20,7:1
20,8:1
20,9:1
20,10:1
20,11:1
20,17:1
20,18:1
20,19:1
20,21:1
21,15:1
21,24:1
21,25:1
21,26:1
22,23:1
22,24:1
22,25:1
22,26:1
23,1:1
23,4:1
23,5:1
23,6:1
23,7:1
23,8:1
23,9:1
23,10:1
23,11:1
23,17:1
23,18:1
23,19:1
24,1:1
24,4:1
24,5:1
24,6:1
24,7:1
24,8:1
24,9:1
24,11:1
24,17:1
24,18:1
24,19:1
24,21:1
24,22:1
25,1:1
25,4:1
25,5:1
25,6:1
25,7:1
25,8:1
25,9:1
25,11:1
25,17:1
25,18:1
25,19:1
25,21:1
25,22:1
26,11:1
26,17:1
26,18:1
26,19:1
26,21:1
26,22:1
27,11:1
27,17:1
27,18:1
27,19:1
27,28:1
27,29:1

<setup times backward>
1,3:1
1,13:1
1,15:1
1,20:1
1,23:1
1,24:1
1,25:1
2,3:1
4,3:1
4,13:1
4,15:1
4,20:1
4,23:1
4,24:1
4,25:1
5,3:1
5,13:1
5,15:1
5,20:1
5,23:1
5,24:1
5,25:1
6,3:1
6,13:1
6,15:1
6,20:1
6,23:1
6,24:1
6,25:1
7,3:1
7,13:1
7,15:1
7,20:1
7,23:1
7,24:1
7,25:1
8,3:1
8,13:1
8,15:1
8,20:1
8,23:1
8,24:1
8,25:1
9,3:1
9,13:1
9,15:1
9,20:1
9,23:1
9,24:1
9,25:1
10,3:1
10,13:1
10,15:1
10,20:1
10,23:1
11,3:1
11,13:1
11,15:1
11,20:1
11,23:1
11,24:1
11,25:1
11,26:1
11,27:1
12,3:1
14,3:1
14,13:1
16,3:1
16,13:1
16,15:1
17,3:1
17,13:1
17,15:1
17,20:1
17,23:1
17,24:1
17,25:1
17,26:1
17,27:1
18,3:1
18,13:1
18,15:1
18,20:1
18,23:1
18,24:1
18,25:1
18,26:1
18,27:1
19,3:1
19,13:1
19,15:1
19,20:1
19,23:1
19,24:1
19,25:1
19,26:1
19,27:1
21,3:1
21,13:1
21,15:1
21,20:1
21,24:1
21,25:1
21,26:1
22,3:1
22,13:1
22,15:1
22,20:1
22,24:1
22,25:1
22,26:1
28,3:1
28,13:1
28,15:1
28,20:1
28,23:1
28,24:1
28,25:1
28,26:1
28,27:1
29,3:1
29,13:1
29,15:1
29,20:1
29,23:1
29,24:1
29,25:1
29,26:1
29,27:1
30,3:1
30,13:1
30,15:1
30,20:1
30,23:1
30,24:1
30,25:1
30,26:1
30,27:1

<end>

<optimal SALBP-1 value>
14


<rand seed>
467321153

